p cnf 98 333
-4 -2 0
-4 -3 0
2 3 4 0
-5 1 0
-5 4 0
-1 -4 5 0
6 7 -8 0
-6 -7 -8 0
6 -7 8 0
-6 7 8 0
-2 -8 -9 0
2 8 -9 0
-2 8 9 0
2 -8 9 0
-12 10 0
-12 -11 0
-10 11 12 0
-13 -9 0
-13 -12 0
9 12 13 0
13 -5 -14 0
-13 5 -14 0
13 5 14 0
-13 -5 14 0
15 -5 0
15 -14 0
5 14 -15 0
-16 15 0
-16 13 0
-15 -13 16 0
18 -7 0
18 17 0
7 -17 -18 0
-20 -18 0
-20 19 0
18 -19 20 0
21 -11 0
21 -4 0
11 4 -21 0
23 22 0
23 19 0
-22 -19 -23 0
21 23 -24 0
-21 -23 -24 0
21 -23 24 0
-21 23 24 0
25 -20 0
25 -24 0
20 24 -25 0
26 -19 0
26 -17 0
19 17 -26 0
27 21 0
27 26 0
-21 -26 -27 0
-25 27 -28 0
25 -27 -28 0
-25 -27 28 0
25 27 28 0
-16 -28 -29 0
16 28 -29 0
-16 28 29 0
16 -28 29 0
31 -1 0
31 -30 0
1 30 -31 0
-32 15 0
-32 -31 0
-15 31 32 0
-33 -8 0
-33 -6 0
8 6 33 0
34 22 0
34 33 0
-22 -33 -34 0
-35 -32 0
-35 34 0
32 -34 35 0
-37 -36 0
-37 -10 0
36 10 37 0
38 -9 0
38 17 0
9 -17 -38 0
39 -38 0
39 9 0
38 -9 -39 0
-10 39 -40 0
10 -39 -40 0
-10 -39 40 0
10 39 40 0
-41 2 0
-41 4 0
-2 -4 41 0
-40 41 -42 0
40 -41 -42 0
-40 -41 42 0
40 41 42 0
-39 -14 -43 0
39 14 -43 0
-39 14 43 0
39 -14 43 0
-44 42 0
-44 -43 0
-42 43 44 0
46 -45 0
46 7 0
45 -7 -46 0
-47 44 0
-47 46 0
-44 -46 47 0
48 -19 0
48 45 0
19 -45 -48 0
-49 -48 0
-49 3 0
48 -3 49 0
50 45 0
50 -49 0
-45 49 -50 0
-51 14 0
-51 6 0
-14 -6 51 0
50 -51 -52 0
-50 51 -52 0
50 51 52 0
-50 -51 52 0
-53 -15 0
-53 45 0
15 -45 53 0
53 -10 -54 0
-53 10 -54 0
53 10 54 0
-53 -10 54 0
-55 52 0
-55 54 0
-52 -54 55 0
47 55 -56 0
-47 -55 -56 0
47 -55 56 0
-47 55 56 0
57 -5 0
57 -9 0
5 9 -57 0
-58 57 0
-58 2 0
-57 -2 58 0
59 1 0
59 22 0
-1 -22 -59 0
-60 7 0
-60 59 0
-7 -59 60 0
-61 22 0
-61 60 0
-22 -60 61 0
62 -58 0
62 -61 0
58 61 -62 0
64 -1 0
64 -63 0
1 63 -64 0
-14 11 -65 0
14 -11 -65 0
-14 -11 65 0
14 11 65 0
-14 65 -66 0
14 -65 -66 0
-14 -65 66 0
14 65 66 0
13 9 -67 0
-13 -9 -67 0
13 -9 67 0
-13 9 67 0
66 -67 -68 0
-66 67 -68 0
66 67 68 0
-66 -67 68 0
64 68 -69 0
-64 -68 -69 0
64 -68 69 0
-64 68 69 0
-70 -62 0
-70 69 0
62 -69 70 0
71 56 0
71 -70 0
-56 70 -71 0
-72 -37 0
-72 -71 0
37 71 72 0
-73 -35 0
-73 72 0
35 -72 73 0
74 -29 0
74 -73 0
29 73 -74 0
-75 59 0
-75 36 0
-59 -36 75 0
-76 -23 0
-76 -19 0
23 19 76 0
77 76 0
77 30 0
-76 -30 -77 0
78 75 0
78 77 0
-75 -77 -78 0
-79 9 0
-79 -59 0
-9 59 79 0
-80 78 0
-80 79 0
-78 -79 80 0
74 80 -81 0
-74 -80 -81 0
74 -80 81 0
-74 80 81 0
82 30 0
82 7 0
-30 -7 -82 0
-23 59 -83 0
23 -59 -83 0
-23 -59 83 0
23 59 83 0
-1 -45 -84 0
1 45 -84 0
-1 45 84 0
1 -45 84 0
85 83 0
85 84 0
-83 -84 -85 0
11 -7 -86 0
-11 7 -86 0
11 7 86 0
-11 -7 86 0
-19 86 -87 0
19 -86 -87 0
-19 -86 87 0
19 86 87 0
-88 85 0
-88 87 0
-85 -87 88 0
-26 -21 -89 0
26 21 -89 0
-26 21 89 0
26 -21 89 0
-90 -88 0
-90 89 0
88 -89 90 0
-91 -5 0
-91 -31 0
5 31 91 0
90 -91 -92 0
-90 91 -92 0
90 91 92 0
-90 -91 92 0
-93 82 0
-93 -92 0
-82 92 93 0
-94 12 0
-94 -13 0
-12 13 94 0
-95 19 0
-95 -8 0
-19 8 95 0
-96 94 0
-96 -95 0
-94 95 96 0
-97 93 0
-97 96 0
-93 -96 97 0
81 97 -98 0
-81 -97 -98 0
81 -97 98 0
-81 97 98 0
-35 42 -4 88 -45 37 0
52 12 -95 -1 47 90 0
31 -79 0
27 82 32 96 -20 0
22 -52 -89 19 0
-21 15 -20 9 76 0
57 -11 -80 0
70 39 -54 0
-60 54 -61 45 0
-82 -31 46 0
-13 33 63 12 67 0
-62 -81 -21 -74 0
20 -49 -90 45 42 0
25 -60 30 63 39 0
-15 -93 67 -76 35 57 0
2 -55 -75 -81 0
-92 -4 82 0
84 -39 68 0
62 84 -75 41 0
24 -49 -83 -72 36 -19 0
26 69 -92 75 61 0
41 -38 70 76 -22 0
-63 -34 -56 -37 0
-52 -63 6 -61 0
59 62 -43 98 -39 0
-34 63 -56 -73 0
-43 95 -50 52 -46 27 0
48 97 62 0
37 3 67 -15 31 0
-82 -90 -70 0
7 72 89 0
-46 32 -95 0
-9 43 -76 10 41 -48 0
89 55 -74 21 -49 0
61 -62 -97 0
-62 -13 34 0
-72 19 -11 -67 78 0
72 -88 46 14 41 -66 0
-15 -94 39 41 30 0
-30 -34 70 80 -5 0
73 -62 -90 0
93 -83 -97 0
-75 76 65 0
-17 89 -47 19 -39 -66 0
84 -40 1 30 -27 0
-44 46 42 53 0
78 -63 34 0
-95 80 23 -75 0
-5 19 95 40 0
-66 -2 -96 5 70 -55 0
23 -78 -75 6 0
95 76 -34 0
31 13 92 -19 -69 80 0
-3 -61 -95 7 -22 -60 0
-35 -51 0
98 0
